20	5
0	7	2	3	4	7	6	5	1
1	4	12	15	20	9
2	4	9	10	19	14
3	2	12	10
4	0
5	0
6	1	16
7	2	12	8
8	2	11	19
9	1	18
10	2	11	17
11	1	21
12	1	21
13	1	21
14	1	21
15	2	21	5
16	1	21
17	1	21
18	1	21
19	1	21
20	1	21
21	0
0	0	0	0	0	0	0
1	4	4	0	4	0	4
2	1	0	0	0	0	3
3	10	0	0	5	0	0
4	10	2	0	0	0	0
5	7	3	4	3	5	3
6	4	4	0	0	0	3
7	8	4	5	0	5	5
8	3	0	5	2	0	5
9	10	0	0	5	3	1
10	9	3	0	3	3	1
11	5	0	0	0	5	4
12	8	1	0	3	4	4
13	5	0	0	0	0	1
14	5	0	0	5	0	5
15	4	0	2	2	0	1
16	7	5	0	1	0	0
17	10	4	0	4	1	0
18	7	0	0	0	3	5
19	6	0	0	0	4	2
20	3	5	4	0	0	0
21	0	0	0	0	0	0
5	5	5	5	5
